p cnf 7230 17
-4990 -6547 6658 0
-6461 -6561 -6663 0
-6459 -6559 -6661 0
-4992 -6549 -6659 0
6461 -6664 0
6459 -6662 0
4992 -6660 0
6663 6664 0
6661 6662 0
6659 6660 0
6561 -6664 0
6559 -6662 0
6549 -6660 0
-6563 6666 0
6563 -6666 0
-6657 -6658 0
6657 6658 0
